
Gurobi 8.1.1 (mac64, Python) logging started Thu Jul 25 15:59:35 2019

Academic license - for non-commercial use only
Changed value of parameter Seed to 666
   Prev: 0  Min: 0  Max: 2000000000  Default: 0
Changed value of parameter Method to 1
   Prev: -1  Min: -1  Max: 5  Default: -1
Changed value of parameter NumericFocus to 3
   Prev: 0  Min: 0  Max: 3  Default: 0
Changed value of parameter LogToConsole to 0
   Prev: 1  Min: 0  Max: 1  Default: 1
Optimize a model with 405 rows, 163 columns and 967 nonzeros
Variable types: 0 continuous, 163 integer (163 binary)
Coefficient statistics:
  Matrix range     [1e+00, 1e+03]
  Objective range  [5e-01, 5e-01]
  Bounds range     [1e+00, 1e+00]
  RHS range        [1e+00, 1e+03]
Found heuristic solution: objective -0.0000000
Presolve removed 340 rows and 126 columns
Presolve time: 0.01s
Presolved: 65 rows, 37 columns, 183 nonzeros
Found heuristic solution: objective 20.0000000
Variable types: 0 continuous, 37 integer (37 binary)

Root relaxation: objective 2.250000e+01, 12 iterations, 0.00 seconds

    Nodes    |    Current Node    |     Objective Bounds      |     Work
 Expl Unexpl |  Obj  Depth IntInf | Incumbent    BestBd   Gap | It/Node Time

*    0     0               0      22.5000000   22.50000  0.00%     -    0s

Explored 0 nodes (12 simplex iterations) in 0.01 seconds
Thread count was 8 (of 8 available processors)

Solution count 3: 22.5 20 18.5 

Optimal solution found (tolerance 1.00e-04)
Best objective 2.250000000000e+01, best bound 2.250000000000e+01, gap 0.0000%
Parameter solutionNumber unchanged
   Value: 0  Min: 0  Max: 2000000000  Default: 0
Changed value of parameter solutionNumber to 1
   Prev: 0  Min: 0  Max: 2000000000  Default: 0
Changed value of parameter solutionNumber to 2
   Prev: 1  Min: 0  Max: 2000000000  Default: 0
